Route #1: 99 75 88 44
Route #2: 123 128 91 146
Route #3: 129 106 137 110
Route #4: 51 50 9 38 69 28
Route #5: 21 93 72
Route #6: 126 89 39 46
Route #7: 23 47
Route #8: 53 37 105 40 130
Route #9: 43 121 143 140 58
Route #10: 147 141 133 78 64 94 4 19
Route #11: 73 98 67 14 10 54 68
Route #12: 95 97 132 56
Route #13: 83 76 87 55 22 111 84
Route #14: 35 70 113 32 104 82
Route #15: 85 109 77 136 18
Route #16: 31 15 16 117 12 3 74 8
Route #17: 25 29 63 24 11 60 45 30 124
Route #18: 125 100 115 135 116 90
Route #19: 65 41 144 131 138 102
Route #20: 127 142 79 139 33 13 66 36 34
Route #21: 27 86 107 118 42
Route #22: 1 5 122 134 62
Route #23: 59 71 145 49 96 92 112 17 2
Route #24: 57 20 101 103 119 48 6 108 114
Route #25: 61 7 81 120 80 52 26
Cost 27376.000000